data/lp_files/pEFS/73_4.lp
\ Model foo
\ LP format - for model browsing. Use MPS format to capture full model detail.
Minimize
  z
Subject To
 allocateEach[1]: x[1,1] + x[2,1] + x[3,1] + x[4,1] = 1
 allocateEach[2]: x[1,2] + x[2,2] + x[3,2] + x[4,2] = 1
 allocateEach[3]: x[1,3] + x[2,3] + x[3,3] + x[4,3] = 1
 allocateEach[4]: x[1,4] + x[2,4] + x[3,4] + x[4,4] = 1
 allocateEach[5]: x[1,5] + x[2,5] + x[3,5] + x[4,5] = 1
 allocateEach[6]: x[1,6] + x[2,6] + x[3,6] + x[4,6] = 1
 allocateEach[7]: x[1,7] + x[2,7] + x[3,7] + x[4,7] = 1
 allocateEach[8]: x[1,8] + x[2,8] + x[3,8] + x[4,8] = 1
 allocateEach[9]: x[1,9] + x[2,9] + x[3,9] + x[4,9] = 1
 allocateEach[10]: x[1,10] + x[2,10] + x[3,10] + x[4,10] = 1
 allocateEach[11]: x[1,11] + x[2,11] + x[3,11] + x[4,11] = 1
 allocateEach[12]: x[1,12] + x[2,12] + x[3,12] + x[4,12] = 1
 allocateEach[13]: x[1,13] + x[2,13] + x[3,13] + x[4,13] = 1
 allocateAllCash: cashProportion[1] + cashProportion[2] + cashProportion[3]
   + cashProportion[4] = 1
 findWorstP[1,2]: z + 0.0366337939422358 cashProportion[1]
   - 0.0366337939422358 cashProportion[2] + 0.00175842210922732 x[1,1]
   + 0.0732968949196255 x[1,2] + 0.0580425831220785 x[1,3]
   + 0.1067069149949445 x[1,4] + 0.0670398429142916 x[1,5]
   + 0.1441026918511789 x[1,6] + 0.1111615843383204 x[1,7]
   + 0.00272555426930235 x[1,8] + 0.0246179095291825 x[1,9]
   + 0.0971967820875401 x[1,10] + 0.0527380097592427 x[1,11]
   + 0.133962457687968 x[1,12] + 0.0900165584748619 x[1,13]
   - 0.00175842210922732 x[2,1] - 0.0732968949196255 x[2,2]
   - 0.0580425831220785 x[2,3] - 0.1067069149949445 x[2,4]
   - 0.0670398429142916 x[2,5] - 0.1441026918511789 x[2,6]
   - 0.1111615843383204 x[2,7] - 0.00272555426930235 x[2,8]
   - 0.0246179095291825 x[2,9] - 0.0971967820875401 x[2,10]
   - 0.0527380097592427 x[2,11] - 0.133962457687968 x[2,12]
   - 0.0900165584748619 x[2,13] >= 0
 findWorstP[1,3]: z + 0.0366337939422358 cashProportion[1]
   - 0.0366337939422358 cashProportion[3] + 0.00175842210922732 x[1,1]
   + 0.0732968949196255 x[1,2] + 0.0580425831220785 x[1,3]
   + 0.1067069149949445 x[1,4] + 0.0670398429142916 x[1,5]
   + 0.1441026918511789 x[1,6] + 0.1111615843383204 x[1,7]
   + 0.00272555426930235 x[1,8] + 0.0246179095291825 x[1,9]
   + 0.0971967820875401 x[1,10] + 0.0527380097592427 x[1,11]
   + 0.133962457687968 x[1,12] + 0.0900165584748619 x[1,13]
   - 0.00175842210922732 x[3,1] - 0.0732968949196255 x[3,2]
   - 0.0580425831220785 x[3,3] - 0.1067069149949445 x[3,4]
   - 0.0670398429142916 x[3,5] - 0.1441026918511789 x[3,6]
   - 0.1111615843383204 x[3,7] - 0.00272555426930235 x[3,8]
   - 0.0246179095291825 x[3,9] - 0.0971967820875401 x[3,10]
   - 0.0527380097592427 x[3,11] - 0.133962457687968 x[3,12]
   - 0.0900165584748619 x[3,13] >= 0
 findWorstP[1,4]: z + 0.0366337939422358 cashProportion[1]
   - 0.0366337939422358 cashProportion[4] + 0.00175842210922732 x[1,1]
   + 0.0732968949196255 x[1,2] + 0.0580425831220785 x[1,3]
   + 0.1067069149949445 x[1,4] + 0.0670398429142916 x[1,5]
   + 0.1441026918511789 x[1,6] + 0.1111615843383204 x[1,7]
   + 0.00272555426930235 x[1,8] + 0.0246179095291825 x[1,9]
   + 0.0971967820875401 x[1,10] + 0.0527380097592427 x[1,11]
   + 0.133962457687968 x[1,12] + 0.0900165584748619 x[1,13]
   - 0.00175842210922732 x[4,1] - 0.0732968949196255 x[4,2]
   - 0.0580425831220785 x[4,3] - 0.1067069149949445 x[4,4]
   - 0.0670398429142916 x[4,5] - 0.1441026918511789 x[4,6]
   - 0.1111615843383204 x[4,7] - 0.00272555426930235 x[4,8]
   - 0.0246179095291825 x[4,9] - 0.0971967820875401 x[4,10]
   - 0.0527380097592427 x[4,11] - 0.133962457687968 x[4,12]
   - 0.0900165584748619 x[4,13] >= 0
 findWorstP[2,1]: z - 0.0463083021524099 cashProportion[1]
   + 0.0463083021524099 cashProportion[2] - 0.1252546956618383 x[1,1]
   - 0.00170414551920868 x[1,2] - 0.0825954877190383 x[1,3]
   - 0.031860111880858 x[1,4] - 0.1410550883562405 x[1,5]
   - 0.022079798466269 x[1,6] - 0.1024339643611307 x[1,7]
   - 0.0116326455006854 x[1,8] - 0.127440447523432 x[1,9]
   - 0.1198088393287149 x[1,10] - 0.00542733301226244 x[1,11]
   - 0.0712221687104064 x[1,12] - 0.1111769718075056 x[1,13]
   + 0.1252546956618383 x[2,1] + 0.00170414551920868 x[2,2]
   + 0.0825954877190383 x[2,3] + 0.031860111880858 x[2,4]
   + 0.1410550883562405 x[2,5] + 0.022079798466269 x[2,6]
   + 0.1024339643611307 x[2,7] + 0.0116326455006854 x[2,8]
   + 0.127440447523432 x[2,9] + 0.1198088393287149 x[2,10]
   + 0.00542733301226244 x[2,11] + 0.0712221687104064 x[2,12]
   + 0.1111769718075056 x[2,13] >= 0
 findWorstP[2,3]: z + 0.0463083021524099 cashProportion[2]
   - 0.0463083021524099 cashProportion[3] + 0.1252546956618383 x[2,1]
   + 0.00170414551920868 x[2,2] + 0.0825954877190383 x[2,3]
   + 0.031860111880858 x[2,4] + 0.1410550883562405 x[2,5]
   + 0.022079798466269 x[2,6] + 0.1024339643611307 x[2,7]
   + 0.0116326455006854 x[2,8] + 0.127440447523432 x[2,9]
   + 0.1198088393287149 x[2,10] + 0.00542733301226244 x[2,11]
   + 0.0712221687104064 x[2,12] + 0.1111769718075056 x[2,13]
   - 0.1252546956618383 x[3,1] - 0.00170414551920868 x[3,2]
   - 0.0825954877190383 x[3,3] - 0.031860111880858 x[3,4]
   - 0.1410550883562405 x[3,5] - 0.022079798466269 x[3,6]
   - 0.1024339643611307 x[3,7] - 0.0116326455006854 x[3,8]
   - 0.127440447523432 x[3,9] - 0.1198088393287149 x[3,10]
   - 0.00542733301226244 x[3,11] - 0.0712221687104064 x[3,12]
   - 0.1111769718075056 x[3,13] >= 0
 findWorstP[2,4]: z + 0.0463083021524099 cashProportion[2]
   - 0.0463083021524099 cashProportion[4] + 0.1252546956618383 x[2,1]
   + 0.00170414551920868 x[2,2] + 0.0825954877190383 x[2,3]
   + 0.031860111880858 x[2,4] + 0.1410550883562405 x[2,5]
   + 0.022079798466269 x[2,6] + 0.1024339643611307 x[2,7]
   + 0.0116326455006854 x[2,8] + 0.127440447523432 x[2,9]
   + 0.1198088393287149 x[2,10] + 0.00542733301226244 x[2,11]
   + 0.0712221687104064 x[2,12] + 0.1111769718075056 x[2,13]
   - 0.1252546956618383 x[4,1] - 0.00170414551920868 x[4,2]
   - 0.0825954877190383 x[4,3] - 0.031860111880858 x[4,4]
   - 0.1410550883562405 x[4,5] - 0.022079798466269 x[4,6]
   - 0.1024339643611307 x[4,7] - 0.0116326455006854 x[4,8]
   - 0.127440447523432 x[4,9] - 0.1198088393287149 x[4,10]
   - 0.00542733301226244 x[4,11] - 0.0712221687104064 x[4,12]
   - 0.1111769718075056 x[4,13] >= 0
 findWorstP[3,1]: z - 0.0406418155511843 cashProportion[1]
   + 0.0406418155511843 cashProportion[3] - 0.0629785573781152 x[1,1]
   - 0.1229658771316633 x[1,2] - 0.03157056232016 x[1,3]
   - 0.00621006941622096 x[1,4] - 0.1387836717441842 x[1,5]
   - 0.00905499650480386 x[1,6] - 0.06588851137158 x[1,7]
   - 0.0154926600881115 x[1,8] - 0.162112073870564 x[1,9]
   - 0.1552192219530831 x[1,10] - 0.0820802106871718 x[1,11]
   - 0.0245151431404744 x[1,12] - 0.0824866288426837 x[1,13]
   + 0.0629785573781152 x[3,1] + 0.1229658771316633 x[3,2]
   + 0.03157056232016 x[3,3] + 0.00621006941622096 x[3,4]
   + 0.1387836717441842 x[3,5] + 0.00905499650480386 x[3,6]
   + 0.06588851137158 x[3,7] + 0.0154926600881115 x[3,8]
   + 0.162112073870564 x[3,9] + 0.1552192219530831 x[3,10]
   + 0.0820802106871718 x[3,11] + 0.0245151431404744 x[3,12]
   + 0.0824866288426837 x[3,13] >= 0
 findWorstP[3,2]: z - 0.0406418155511843 cashProportion[2]
   + 0.0406418155511843 cashProportion[3] - 0.0629785573781152 x[2,1]
   - 0.1229658771316633 x[2,2] - 0.03157056232016 x[2,3]
   - 0.00621006941622096 x[2,4] - 0.1387836717441842 x[2,5]
   - 0.00905499650480386 x[2,6] - 0.06588851137158 x[2,7]
   - 0.0154926600881115 x[2,8] - 0.162112073870564 x[2,9]
   - 0.1552192219530831 x[2,10] - 0.0820802106871718 x[2,11]
   - 0.0245151431404744 x[2,12] - 0.0824866288426837 x[2,13]
   + 0.0629785573781152 x[3,1] + 0.1229658771316633 x[3,2]
   + 0.03157056232016 x[3,3] + 0.00621006941622096 x[3,4]
   + 0.1387836717441842 x[3,5] + 0.00905499650480386 x[3,6]
   + 0.06588851137158 x[3,7] + 0.0154926600881115 x[3,8]
   + 0.162112073870564 x[3,9] + 0.1552192219530831 x[3,10]
   + 0.0820802106871718 x[3,11] + 0.0245151431404744 x[3,12]
   + 0.0824866288426837 x[3,13] >= 0
 findWorstP[3,4]: z + 0.0406418155511843 cashProportion[3]
   - 0.0406418155511843 cashProportion[4] + 0.0629785573781152 x[3,1]
   + 0.1229658771316633 x[3,2] + 0.03157056232016 x[3,3]
   + 0.00621006941622096 x[3,4] + 0.1387836717441842 x[3,5]
   + 0.00905499650480386 x[3,6] + 0.06588851137158 x[3,7]
   + 0.0154926600881115 x[3,8] + 0.162112073870564 x[3,9]
   + 0.1552192219530831 x[3,10] + 0.0820802106871718 x[3,11]
   + 0.0245151431404744 x[3,12] + 0.0824866288426837 x[3,13]
   - 0.0629785573781152 x[4,1] - 0.1229658771316633 x[4,2]
   - 0.03157056232016 x[4,3] - 0.00621006941622096 x[4,4]
   - 0.1387836717441842 x[4,5] - 0.00905499650480386 x[4,6]
   - 0.06588851137158 x[4,7] - 0.0154926600881115 x[4,8]
   - 0.162112073870564 x[4,9] - 0.1552192219530831 x[4,10]
   - 0.0820802106871718 x[4,11] - 0.0245151431404744 x[4,12]
   - 0.0824866288426837 x[4,13] >= 0
 findWorstP[4,1]: z - 0.0373938016034462 cashProportion[1]
   + 0.0373938016034462 cashProportion[4] - 0.095518726815843 x[1,1]
   - 0.0913455785568984 x[1,2] - 0.0106796697379442 x[1,3]
   - 0.1131386861313869 x[1,4] - 0.0557765944717004 x[1,5]
   - 0.1323740576761996 x[1,6] - 0.0758495871724303 x[1,7]
   - 0.0332954409477085 x[1,8] - 0.0164682302261577 x[1,9]
   - 0.029720593514419 x[1,10] - 0.0633301423955965 x[1,11]
   - 0.1005893263132703 x[1,12] - 0.1445195644369989 x[1,13]
   + 0.095518726815843 x[4,1] + 0.0913455785568984 x[4,2]
   + 0.0106796697379442 x[4,3] + 0.1131386861313869 x[4,4]
   + 0.0557765944717004 x[4,5] + 0.1323740576761996 x[4,6]
   + 0.0758495871724303 x[4,7] + 0.0332954409477085 x[4,8]
   + 0.0164682302261577 x[4,9] + 0.029720593514419 x[4,10]
   + 0.0633301423955965 x[4,11] + 0.1005893263132703 x[4,12]
   + 0.1445195644369989 x[4,13] >= 0
 findWorstP[4,2]: z - 0.0373938016034462 cashProportion[2]
   + 0.0373938016034462 cashProportion[4] - 0.095518726815843 x[2,1]
   - 0.0913455785568984 x[2,2] - 0.0106796697379442 x[2,3]
   - 0.1131386861313869 x[2,4] - 0.0557765944717004 x[2,5]
   - 0.1323740576761996 x[2,6] - 0.0758495871724303 x[2,7]
   - 0.0332954409477085 x[2,8] - 0.0164682302261577 x[2,9]
   - 0.029720593514419 x[2,10] - 0.0633301423955965 x[2,11]
   - 0.1005893263132703 x[2,12] - 0.1445195644369989 x[2,13]
   + 0.095518726815843 x[4,1] + 0.0913455785568984 x[4,2]
   + 0.0106796697379442 x[4,3] + 0.1131386861313869 x[4,4]
   + 0.0557765944717004 x[4,5] + 0.1323740576761996 x[4,6]
   + 0.0758495871724303 x[4,7] + 0.0332954409477085 x[4,8]
   + 0.0164682302261577 x[4,9] + 0.029720593514419 x[4,10]
   + 0.0633301423955965 x[4,11] + 0.1005893263132703 x[4,12]
   + 0.1445195644369989 x[4,13] >= 0
 findWorstP[4,3]: z - 0.0373938016034462 cashProportion[3]
   + 0.0373938016034462 cashProportion[4] - 0.095518726815843 x[3,1]
   - 0.0913455785568984 x[3,2] - 0.0106796697379442 x[3,3]
   - 0.1131386861313869 x[3,4] - 0.0557765944717004 x[3,5]
   - 0.1323740576761996 x[3,6] - 0.0758495871724303 x[3,7]
   - 0.0332954409477085 x[3,8] - 0.0164682302261577 x[3,9]
   - 0.029720593514419 x[3,10] - 0.0633301423955965 x[3,11]
   - 0.1005893263132703 x[3,12] - 0.1445195644369989 x[3,13]
   + 0.095518726815843 x[4,1] + 0.0913455785568984 x[4,2]
   + 0.0106796697379442 x[4,3] + 0.1131386861313869 x[4,4]
   + 0.0557765944717004 x[4,5] + 0.1323740576761996 x[4,6]
   + 0.0758495871724303 x[4,7] + 0.0332954409477085 x[4,8]
   + 0.0164682302261577 x[4,9] + 0.029720593514419 x[4,10]
   + 0.0633301423955965 x[4,11] + 0.1005893263132703 x[4,12]
   + 0.1445195644369989 x[4,13] >= 0
Bounds
 z <= 1
 -infinity <= cashProportion[1] <= 1
 -infinity <= cashProportion[2] <= 1
 -infinity <= cashProportion[3] <= 1
 -infinity <= cashProportion[4] <= 1
Binaries
 x[1,1] x[1,2] x[1,3] x[1,4] x[1,5] x[1,6] x[1,7] x[1,8] x[1,9] x[1,10]
 x[1,11] x[1,12] x[1,13] x[2,1] x[2,2] x[2,3] x[2,4] x[2,5] x[2,6] x[2,7]
 x[2,8] x[2,9] x[2,10] x[2,11] x[2,12] x[2,13] x[3,1] x[3,2] x[3,3] x[3,4]
 x[3,5] x[3,6] x[3,7] x[3,8] x[3,9] x[3,10] x[3,11] x[3,12] x[3,13] x[4,1]
 x[4,2] x[4,3] x[4,4] x[4,5] x[4,6] x[4,7] x[4,8] x[4,9] x[4,10] x[4,11]
 x[4,12] x[4,13]
End
