data/mps_files/pEFS/73_4.mps
NAME foo
ROWS
 N  OBJ
 E  allocateEach[1]
 E  allocateEach[2]
 E  allocateEach[3]
 E  allocateEach[4]
 E  allocateEach[5]
 E  allocateEach[6]
 E  allocateEach[7]
 E  allocateEach[8]
 E  allocateEach[9]
 E  allocateEach[10]
 E  allocateEach[11]
 E  allocateEach[12]
 E  allocateEach[13]
 E  allocateAllCash
 G  findWorstP[1,2]
 G  findWorstP[1,3]
 G  findWorstP[1,4]
 G  findWorstP[2,1]
 G  findWorstP[2,3]
 G  findWorstP[2,4]
 G  findWorstP[3,1]
 G  findWorstP[3,2]
 G  findWorstP[3,4]
 G  findWorstP[4,1]
 G  findWorstP[4,2]
 G  findWorstP[4,3]
COLUMNS
    z         OBJ       1
    z         findWorstP[1,2]  1
    z         findWorstP[1,3]  1
    z         findWorstP[1,4]  1
    z         findWorstP[2,1]  1
    z         findWorstP[2,3]  1
    z         findWorstP[2,4]  1
    z         findWorstP[3,1]  1
    z         findWorstP[3,2]  1
    z         findWorstP[3,4]  1
    z         findWorstP[4,1]  1
    z         findWorstP[4,2]  1
    z         findWorstP[4,3]  1
    cashProportion[1]  allocateAllCash  1
    cashProportion[1]  findWorstP[1,2]  3.6633793942235836e-02
    cashProportion[1]  findWorstP[1,3]  3.6633793942235836e-02
    cashProportion[1]  findWorstP[1,4]  3.6633793942235836e-02
    cashProportion[1]  findWorstP[2,1]  -4.6308302152409886e-02
    cashProportion[1]  findWorstP[3,1]  -4.0641815551184311e-02
    cashProportion[1]  findWorstP[4,1]  -3.7393801603446214e-02
    cashProportion[2]  allocateAllCash  1
    cashProportion[2]  findWorstP[1,2]  -3.6633793942235836e-02
    cashProportion[2]  findWorstP[2,1]  4.6308302152409886e-02
    cashProportion[2]  findWorstP[2,3]  4.6308302152409886e-02
    cashProportion[2]  findWorstP[2,4]  4.6308302152409886e-02
    cashProportion[2]  findWorstP[3,2]  -4.0641815551184311e-02
    cashProportion[2]  findWorstP[4,2]  -3.7393801603446214e-02
    cashProportion[3]  allocateAllCash  1
    cashProportion[3]  findWorstP[1,3]  -3.6633793942235836e-02
    cashProportion[3]  findWorstP[2,3]  -4.6308302152409886e-02
    cashProportion[3]  findWorstP[3,1]  4.0641815551184311e-02
    cashProportion[3]  findWorstP[3,2]  4.0641815551184311e-02
    cashProportion[3]  findWorstP[3,4]  4.0641815551184311e-02
    cashProportion[3]  findWorstP[4,3]  -3.7393801603446214e-02
    cashProportion[4]  allocateAllCash  1
    cashProportion[4]  findWorstP[1,4]  -3.6633793942235836e-02
    cashProportion[4]  findWorstP[2,4]  -4.6308302152409886e-02
    cashProportion[4]  findWorstP[3,4]  -4.0641815551184311e-02
    cashProportion[4]  findWorstP[4,1]  3.7393801603446214e-02
    cashProportion[4]  findWorstP[4,2]  3.7393801603446214e-02
    cashProportion[4]  findWorstP[4,3]  3.7393801603446214e-02
    MARKER    'MARKER'                 'INTORG'
    x[1,1]    allocateEach[1]  1
    x[1,1]    findWorstP[1,2]  0.00175842210922732
    x[1,1]    findWorstP[1,3]  0.00175842210922732
    x[1,1]    findWorstP[1,4]  0.00175842210922732
    x[1,1]    findWorstP[2,1]  -1.2525469566183825e-01
    x[1,1]    findWorstP[3,1]  -6.2978557378115210e-02
    x[1,1]    findWorstP[4,1]  -0.095518726815843
    x[1,2]    allocateEach[2]  1
    x[1,2]    findWorstP[1,2]  7.3296894919625460e-02
    x[1,2]    findWorstP[1,3]  7.3296894919625460e-02
    x[1,2]    findWorstP[1,4]  7.3296894919625460e-02
    x[1,2]    findWorstP[2,1]  -1.7041455192086839e-03
    x[1,2]    findWorstP[3,1]  -1.2296587713166325e-01
    x[1,2]    findWorstP[4,1]  -9.1345578556898413e-02
    x[1,3]    allocateEach[3]  1
    x[1,3]    findWorstP[1,2]  5.8042583122078460e-02
    x[1,3]    findWorstP[1,3]  5.8042583122078460e-02
    x[1,3]    findWorstP[1,4]  5.8042583122078460e-02
    x[1,3]    findWorstP[2,1]  -8.2595487719038282e-02
    x[1,3]    findWorstP[3,1]  -3.1570562320159978e-02
    x[1,3]    findWorstP[4,1]  -1.0679669737944240e-02
    x[1,4]    allocateEach[4]  1
    x[1,4]    findWorstP[1,2]  1.0670691499494453e-01
    x[1,4]    findWorstP[1,3]  1.0670691499494453e-01
    x[1,4]    findWorstP[1,4]  1.0670691499494453e-01
    x[1,4]    findWorstP[2,1]  -0.031860111880858
    x[1,4]    findWorstP[3,1]  -6.2100694162209626e-03
    x[1,4]    findWorstP[4,1]  -1.1313868613138686e-01
    x[1,5]    allocateEach[5]  1
    x[1,5]    findWorstP[1,2]  6.7039842914291575e-02
    x[1,5]    findWorstP[1,3]  6.7039842914291575e-02
    x[1,5]    findWorstP[1,4]  6.7039842914291575e-02
    x[1,5]    findWorstP[2,1]  -1.4105508835624050e-01
    x[1,5]    findWorstP[3,1]  -1.3878367174418418e-01
    x[1,5]    findWorstP[4,1]  -5.5776594471700372e-02
    x[1,6]    allocateEach[6]  1
    x[1,6]    findWorstP[1,2]  1.4410269185117888e-01
    x[1,6]    findWorstP[1,3]  1.4410269185117888e-01
    x[1,6]    findWorstP[1,4]  1.4410269185117888e-01
    x[1,6]    findWorstP[2,1]  -2.2079798466269035e-02
    x[1,6]    findWorstP[3,1]  -9.0549965048038646e-03
    x[1,6]    findWorstP[4,1]  -1.3237405767619959e-01
    x[1,7]    allocateEach[7]  1
    x[1,7]    findWorstP[1,2]  1.1116158433832042e-01
    x[1,7]    findWorstP[1,3]  1.1116158433832042e-01
    x[1,7]    findWorstP[1,4]  1.1116158433832042e-01
    x[1,7]    findWorstP[2,1]  -1.0243396436113068e-01
    x[1,7]    findWorstP[3,1]  -0.06588851137158
    x[1,7]    findWorstP[4,1]  -0.0758495871724303
    x[1,8]    allocateEach[8]  1
    x[1,8]    findWorstP[1,2]  2.7255542693023459e-03
    x[1,8]    findWorstP[1,3]  2.7255542693023459e-03
    x[1,8]    findWorstP[1,4]  2.7255542693023459e-03
    x[1,8]    findWorstP[2,1]  -1.1632645500685362e-02
    x[1,8]    findWorstP[3,1]  -1.5492660088111459e-02
    x[1,8]    findWorstP[4,1]  -3.3295440947708504e-02
    x[1,9]    allocateEach[9]  1
    x[1,9]    findWorstP[1,2]  2.4617909529182483e-02
    x[1,9]    findWorstP[1,3]  2.4617909529182483e-02
    x[1,9]    findWorstP[1,4]  2.4617909529182483e-02
    x[1,9]    findWorstP[2,1]  -0.127440447523432
    x[1,9]    findWorstP[3,1]  -1.6211207387056398e-01
    x[1,9]    findWorstP[4,1]  -1.6468230226157714e-02
    x[1,10]   allocateEach[10]  1
    x[1,10]   findWorstP[1,2]  9.7196782087540123e-02
    x[1,10]   findWorstP[1,3]  9.7196782087540123e-02
    x[1,10]   findWorstP[1,4]  9.7196782087540123e-02
    x[1,10]   findWorstP[2,1]  -1.1980883932871486e-01
    x[1,10]   findWorstP[3,1]  -1.5521922195308313e-01
    x[1,10]   findWorstP[4,1]  -2.9720593514419049e-02
    x[1,11]   allocateEach[11]  1
    x[1,11]   findWorstP[1,2]  5.2738009759242706e-02
    x[1,11]   findWorstP[1,3]  5.2738009759242706e-02
    x[1,11]   findWorstP[1,4]  5.2738009759242706e-02
    x[1,11]   findWorstP[2,1]  -5.4273330122624388e-03
    x[1,11]   findWorstP[3,1]  -8.2080210687171834e-02
    x[1,11]   findWorstP[4,1]  -0.0633301423955965
    x[1,12]   allocateEach[12]  1
    x[1,12]   findWorstP[1,2]  0.133962457687968
    x[1,12]   findWorstP[1,3]  0.133962457687968
    x[1,12]   findWorstP[1,4]  0.133962457687968
    x[1,12]   findWorstP[2,1]  -0.0712221687104064
    x[1,12]   findWorstP[3,1]  -2.4515143140474375e-02
    x[1,12]   findWorstP[4,1]  -1.0058932631327032e-01
    x[1,13]   allocateEach[13]  1
    x[1,13]   findWorstP[1,2]  0.0900165584748619
    x[1,13]   findWorstP[1,3]  0.0900165584748619
    x[1,13]   findWorstP[1,4]  0.0900165584748619
    x[1,13]   findWorstP[2,1]  -1.1117697180750565e-01
    x[1,13]   findWorstP[3,1]  -8.2486628842683665e-02
    x[1,13]   findWorstP[4,1]  -1.4451956443699893e-01
    x[2,1]    allocateEach[1]  1
    x[2,1]    findWorstP[1,2]  -0.00175842210922732
    x[2,1]    findWorstP[2,1]  1.2525469566183825e-01
    x[2,1]    findWorstP[2,3]  1.2525469566183825e-01
    x[2,1]    findWorstP[2,4]  1.2525469566183825e-01
    x[2,1]    findWorstP[3,2]  -6.2978557378115210e-02
    x[2,1]    findWorstP[4,2]  -0.095518726815843
    x[2,2]    allocateEach[2]  1
    x[2,2]    findWorstP[1,2]  -7.3296894919625460e-02
    x[2,2]    findWorstP[2,1]  1.7041455192086839e-03
    x[2,2]    findWorstP[2,3]  1.7041455192086839e-03
    x[2,2]    findWorstP[2,4]  1.7041455192086839e-03
    x[2,2]    findWorstP[3,2]  -1.2296587713166325e-01
    x[2,2]    findWorstP[4,2]  -9.1345578556898413e-02
    x[2,3]    allocateEach[3]  1
    x[2,3]    findWorstP[1,2]  -5.8042583122078460e-02
    x[2,3]    findWorstP[2,1]  8.2595487719038282e-02
    x[2,3]    findWorstP[2,3]  8.2595487719038282e-02
    x[2,3]    findWorstP[2,4]  8.2595487719038282e-02
    x[2,3]    findWorstP[3,2]  -3.1570562320159978e-02
    x[2,3]    findWorstP[4,2]  -1.0679669737944240e-02
    x[2,4]    allocateEach[4]  1
    x[2,4]    findWorstP[1,2]  -1.0670691499494453e-01
    x[2,4]    findWorstP[2,1]  0.031860111880858
    x[2,4]    findWorstP[2,3]  0.031860111880858
    x[2,4]    findWorstP[2,4]  0.031860111880858
    x[2,4]    findWorstP[3,2]  -6.2100694162209626e-03
    x[2,4]    findWorstP[4,2]  -1.1313868613138686e-01
    x[2,5]    allocateEach[5]  1
    x[2,5]    findWorstP[1,2]  -6.7039842914291575e-02
    x[2,5]    findWorstP[2,1]  1.4105508835624050e-01
    x[2,5]    findWorstP[2,3]  1.4105508835624050e-01
    x[2,5]    findWorstP[2,4]  1.4105508835624050e-01
    x[2,5]    findWorstP[3,2]  -1.3878367174418418e-01
    x[2,5]    findWorstP[4,2]  -5.5776594471700372e-02
    x[2,6]    allocateEach[6]  1
    x[2,6]    findWorstP[1,2]  -1.4410269185117888e-01
    x[2,6]    findWorstP[2,1]  2.2079798466269035e-02
    x[2,6]    findWorstP[2,3]  2.2079798466269035e-02
    x[2,6]    findWorstP[2,4]  2.2079798466269035e-02
    x[2,6]    findWorstP[3,2]  -9.0549965048038646e-03
    x[2,6]    findWorstP[4,2]  -1.3237405767619959e-01
    x[2,7]    allocateEach[7]  1
    x[2,7]    findWorstP[1,2]  -1.1116158433832042e-01
    x[2,7]    findWorstP[2,1]  1.0243396436113068e-01
    x[2,7]    findWorstP[2,3]  1.0243396436113068e-01
    x[2,7]    findWorstP[2,4]  1.0243396436113068e-01
    x[2,7]    findWorstP[3,2]  -0.06588851137158
    x[2,7]    findWorstP[4,2]  -0.0758495871724303
    x[2,8]    allocateEach[8]  1
    x[2,8]    findWorstP[1,2]  -2.7255542693023459e-03
    x[2,8]    findWorstP[2,1]  1.1632645500685362e-02
    x[2,8]    findWorstP[2,3]  1.1632645500685362e-02
    x[2,8]    findWorstP[2,4]  1.1632645500685362e-02
    x[2,8]    findWorstP[3,2]  -1.5492660088111459e-02
    x[2,8]    findWorstP[4,2]  -3.3295440947708504e-02
    x[2,9]    allocateEach[9]  1
    x[2,9]    findWorstP[1,2]  -2.4617909529182483e-02
    x[2,9]    findWorstP[2,1]  0.127440447523432
    x[2,9]    findWorstP[2,3]  0.127440447523432
    x[2,9]    findWorstP[2,4]  0.127440447523432
    x[2,9]    findWorstP[3,2]  -1.6211207387056398e-01
    x[2,9]    findWorstP[4,2]  -1.6468230226157714e-02
    x[2,10]   allocateEach[10]  1
    x[2,10]   findWorstP[1,2]  -9.7196782087540123e-02
    x[2,10]   findWorstP[2,1]  1.1980883932871486e-01
    x[2,10]   findWorstP[2,3]  1.1980883932871486e-01
    x[2,10]   findWorstP[2,4]  1.1980883932871486e-01
    x[2,10]   findWorstP[3,2]  -1.5521922195308313e-01
    x[2,10]   findWorstP[4,2]  -2.9720593514419049e-02
    x[2,11]   allocateEach[11]  1
    x[2,11]   findWorstP[1,2]  -5.2738009759242706e-02
    x[2,11]   findWorstP[2,1]  5.4273330122624388e-03
    x[2,11]   findWorstP[2,3]  5.4273330122624388e-03
    x[2,11]   findWorstP[2,4]  5.4273330122624388e-03
    x[2,11]   findWorstP[3,2]  -8.2080210687171834e-02
    x[2,11]   findWorstP[4,2]  -0.0633301423955965
    x[2,12]   allocateEach[12]  1
    x[2,12]   findWorstP[1,2]  -0.133962457687968
    x[2,12]   findWorstP[2,1]  0.0712221687104064
    x[2,12]   findWorstP[2,3]  0.0712221687104064
    x[2,12]   findWorstP[2,4]  0.0712221687104064
    x[2,12]   findWorstP[3,2]  -2.4515143140474375e-02
    x[2,12]   findWorstP[4,2]  -1.0058932631327032e-01
    x[2,13]   allocateEach[13]  1
    x[2,13]   findWorstP[1,2]  -0.0900165584748619
    x[2,13]   findWorstP[2,1]  1.1117697180750565e-01
    x[2,13]   findWorstP[2,3]  1.1117697180750565e-01
    x[2,13]   findWorstP[2,4]  1.1117697180750565e-01
    x[2,13]   findWorstP[3,2]  -8.2486628842683665e-02
    x[2,13]   findWorstP[4,2]  -1.4451956443699893e-01
    x[3,1]    allocateEach[1]  1
    x[3,1]    findWorstP[1,3]  -0.00175842210922732
    x[3,1]    findWorstP[2,3]  -1.2525469566183825e-01
    x[3,1]    findWorstP[3,1]  6.2978557378115210e-02
    x[3,1]    findWorstP[3,2]  6.2978557378115210e-02
    x[3,1]    findWorstP[3,4]  6.2978557378115210e-02
    x[3,1]    findWorstP[4,3]  -0.095518726815843
    x[3,2]    allocateEach[2]  1
    x[3,2]    findWorstP[1,3]  -7.3296894919625460e-02
    x[3,2]    findWorstP[2,3]  -1.7041455192086839e-03
    x[3,2]    findWorstP[3,1]  1.2296587713166325e-01
    x[3,2]    findWorstP[3,2]  1.2296587713166325e-01
    x[3,2]    findWorstP[3,4]  1.2296587713166325e-01
    x[3,2]    findWorstP[4,3]  -9.1345578556898413e-02
    x[3,3]    allocateEach[3]  1
    x[3,3]    findWorstP[1,3]  -5.8042583122078460e-02
    x[3,3]    findWorstP[2,3]  -8.2595487719038282e-02
    x[3,3]    findWorstP[3,1]  3.1570562320159978e-02
    x[3,3]    findWorstP[3,2]  3.1570562320159978e-02
    x[3,3]    findWorstP[3,4]  3.1570562320159978e-02
    x[3,3]    findWorstP[4,3]  -1.0679669737944240e-02
    x[3,4]    allocateEach[4]  1
    x[3,4]    findWorstP[1,3]  -1.0670691499494453e-01
    x[3,4]    findWorstP[2,3]  -0.031860111880858
    x[3,4]    findWorstP[3,1]  6.2100694162209626e-03
    x[3,4]    findWorstP[3,2]  6.2100694162209626e-03
    x[3,4]    findWorstP[3,4]  6.2100694162209626e-03
    x[3,4]    findWorstP[4,3]  -1.1313868613138686e-01
    x[3,5]    allocateEach[5]  1
    x[3,5]    findWorstP[1,3]  -6.7039842914291575e-02
    x[3,5]    findWorstP[2,3]  -1.4105508835624050e-01
    x[3,5]    findWorstP[3,1]  1.3878367174418418e-01
    x[3,5]    findWorstP[3,2]  1.3878367174418418e-01
    x[3,5]    findWorstP[3,4]  1.3878367174418418e-01
    x[3,5]    findWorstP[4,3]  -5.5776594471700372e-02
    x[3,6]    allocateEach[6]  1
    x[3,6]    findWorstP[1,3]  -1.4410269185117888e-01
    x[3,6]    findWorstP[2,3]  -2.2079798466269035e-02
    x[3,6]    findWorstP[3,1]  9.0549965048038646e-03
    x[3,6]    findWorstP[3,2]  9.0549965048038646e-03
    x[3,6]    findWorstP[3,4]  9.0549965048038646e-03
    x[3,6]    findWorstP[4,3]  -1.3237405767619959e-01
    x[3,7]    allocateEach[7]  1
    x[3,7]    findWorstP[1,3]  -1.1116158433832042e-01
    x[3,7]    findWorstP[2,3]  -1.0243396436113068e-01
    x[3,7]    findWorstP[3,1]  0.06588851137158
    x[3,7]    findWorstP[3,2]  0.06588851137158
    x[3,7]    findWorstP[3,4]  0.06588851137158
    x[3,7]    findWorstP[4,3]  -0.0758495871724303
    x[3,8]    allocateEach[8]  1
    x[3,8]    findWorstP[1,3]  -2.7255542693023459e-03
    x[3,8]    findWorstP[2,3]  -1.1632645500685362e-02
    x[3,8]    findWorstP[3,1]  1.5492660088111459e-02
    x[3,8]    findWorstP[3,2]  1.5492660088111459e-02
    x[3,8]    findWorstP[3,4]  1.5492660088111459e-02
    x[3,8]    findWorstP[4,3]  -3.3295440947708504e-02
    x[3,9]    allocateEach[9]  1
    x[3,9]    findWorstP[1,3]  -2.4617909529182483e-02
    x[3,9]    findWorstP[2,3]  -0.127440447523432
    x[3,9]    findWorstP[3,1]  1.6211207387056398e-01
    x[3,9]    findWorstP[3,2]  1.6211207387056398e-01
    x[3,9]    findWorstP[3,4]  1.6211207387056398e-01
    x[3,9]    findWorstP[4,3]  -1.6468230226157714e-02
    x[3,10]   allocateEach[10]  1
    x[3,10]   findWorstP[1,3]  -9.7196782087540123e-02
    x[3,10]   findWorstP[2,3]  -1.1980883932871486e-01
    x[3,10]   findWorstP[3,1]  1.5521922195308313e-01
    x[3,10]   findWorstP[3,2]  1.5521922195308313e-01
    x[3,10]   findWorstP[3,4]  1.5521922195308313e-01
    x[3,10]   findWorstP[4,3]  -2.9720593514419049e-02
    x[3,11]   allocateEach[11]  1
    x[3,11]   findWorstP[1,3]  -5.2738009759242706e-02
    x[3,11]   findWorstP[2,3]  -5.4273330122624388e-03
    x[3,11]   findWorstP[3,1]  8.2080210687171834e-02
    x[3,11]   findWorstP[3,2]  8.2080210687171834e-02
    x[3,11]   findWorstP[3,4]  8.2080210687171834e-02
    x[3,11]   findWorstP[4,3]  -0.0633301423955965
    x[3,12]   allocateEach[12]  1
    x[3,12]   findWorstP[1,3]  -0.133962457687968
    x[3,12]   findWorstP[2,3]  -0.0712221687104064
    x[3,12]   findWorstP[3,1]  2.4515143140474375e-02
    x[3,12]   findWorstP[3,2]  2.4515143140474375e-02
    x[3,12]   findWorstP[3,4]  2.4515143140474375e-02
    x[3,12]   findWorstP[4,3]  -1.0058932631327032e-01
    x[3,13]   allocateEach[13]  1
    x[3,13]   findWorstP[1,3]  -0.0900165584748619
    x[3,13]   findWorstP[2,3]  -1.1117697180750565e-01
    x[3,13]   findWorstP[3,1]  8.2486628842683665e-02
    x[3,13]   findWorstP[3,2]  8.2486628842683665e-02
    x[3,13]   findWorstP[3,4]  8.2486628842683665e-02
    x[3,13]   findWorstP[4,3]  -1.4451956443699893e-01
    x[4,1]    allocateEach[1]  1
    x[4,1]    findWorstP[1,4]  -0.00175842210922732
    x[4,1]    findWorstP[2,4]  -1.2525469566183825e-01
    x[4,1]    findWorstP[3,4]  -6.2978557378115210e-02
    x[4,1]    findWorstP[4,1]  0.095518726815843
    x[4,1]    findWorstP[4,2]  0.095518726815843
    x[4,1]    findWorstP[4,3]  0.095518726815843
    x[4,2]    allocateEach[2]  1
    x[4,2]    findWorstP[1,4]  -7.3296894919625460e-02
    x[4,2]    findWorstP[2,4]  -1.7041455192086839e-03
    x[4,2]    findWorstP[3,4]  -1.2296587713166325e-01
    x[4,2]    findWorstP[4,1]  9.1345578556898413e-02
    x[4,2]    findWorstP[4,2]  9.1345578556898413e-02
    x[4,2]    findWorstP[4,3]  9.1345578556898413e-02
    x[4,3]    allocateEach[3]  1
    x[4,3]    findWorstP[1,4]  -5.8042583122078460e-02
    x[4,3]    findWorstP[2,4]  -8.2595487719038282e-02
    x[4,3]    findWorstP[3,4]  -3.1570562320159978e-02
    x[4,3]    findWorstP[4,1]  1.0679669737944240e-02
    x[4,3]    findWorstP[4,2]  1.0679669737944240e-02
    x[4,3]    findWorstP[4,3]  1.0679669737944240e-02
    x[4,4]    allocateEach[4]  1
    x[4,4]    findWorstP[1,4]  -1.0670691499494453e-01
    x[4,4]    findWorstP[2,4]  -0.031860111880858
    x[4,4]    findWorstP[3,4]  -6.2100694162209626e-03
    x[4,4]    findWorstP[4,1]  1.1313868613138686e-01
    x[4,4]    findWorstP[4,2]  1.1313868613138686e-01
    x[4,4]    findWorstP[4,3]  1.1313868613138686e-01
    x[4,5]    allocateEach[5]  1
    x[4,5]    findWorstP[1,4]  -6.7039842914291575e-02
    x[4,5]    findWorstP[2,4]  -1.4105508835624050e-01
    x[4,5]    findWorstP[3,4]  -1.3878367174418418e-01
    x[4,5]    findWorstP[4,1]  5.5776594471700372e-02
    x[4,5]    findWorstP[4,2]  5.5776594471700372e-02
    x[4,5]    findWorstP[4,3]  5.5776594471700372e-02
    x[4,6]    allocateEach[6]  1
    x[4,6]    findWorstP[1,4]  -1.4410269185117888e-01
    x[4,6]    findWorstP[2,4]  -2.2079798466269035e-02
    x[4,6]    findWorstP[3,4]  -9.0549965048038646e-03
    x[4,6]    findWorstP[4,1]  1.3237405767619959e-01
    x[4,6]    findWorstP[4,2]  1.3237405767619959e-01
    x[4,6]    findWorstP[4,3]  1.3237405767619959e-01
    x[4,7]    allocateEach[7]  1
    x[4,7]    findWorstP[1,4]  -1.1116158433832042e-01
    x[4,7]    findWorstP[2,4]  -1.0243396436113068e-01
    x[4,7]    findWorstP[3,4]  -0.06588851137158
    x[4,7]    findWorstP[4,1]  0.0758495871724303
    x[4,7]    findWorstP[4,2]  0.0758495871724303
    x[4,7]    findWorstP[4,3]  0.0758495871724303
    x[4,8]    allocateEach[8]  1
    x[4,8]    findWorstP[1,4]  -2.7255542693023459e-03
    x[4,8]    findWorstP[2,4]  -1.1632645500685362e-02
    x[4,8]    findWorstP[3,4]  -1.5492660088111459e-02
    x[4,8]    findWorstP[4,1]  3.3295440947708504e-02
    x[4,8]    findWorstP[4,2]  3.3295440947708504e-02
    x[4,8]    findWorstP[4,3]  3.3295440947708504e-02
    x[4,9]    allocateEach[9]  1
    x[4,9]    findWorstP[1,4]  -2.4617909529182483e-02
    x[4,9]    findWorstP[2,4]  -0.127440447523432
    x[4,9]    findWorstP[3,4]  -1.6211207387056398e-01
    x[4,9]    findWorstP[4,1]  1.6468230226157714e-02
    x[4,9]    findWorstP[4,2]  1.6468230226157714e-02
    x[4,9]    findWorstP[4,3]  1.6468230226157714e-02
    x[4,10]   allocateEach[10]  1
    x[4,10]   findWorstP[1,4]  -9.7196782087540123e-02
    x[4,10]   findWorstP[2,4]  -1.1980883932871486e-01
    x[4,10]   findWorstP[3,4]  -1.5521922195308313e-01
    x[4,10]   findWorstP[4,1]  2.9720593514419049e-02
    x[4,10]   findWorstP[4,2]  2.9720593514419049e-02
    x[4,10]   findWorstP[4,3]  2.9720593514419049e-02
    x[4,11]   allocateEach[11]  1
    x[4,11]   findWorstP[1,4]  -5.2738009759242706e-02
    x[4,11]   findWorstP[2,4]  -5.4273330122624388e-03
    x[4,11]   findWorstP[3,4]  -8.2080210687171834e-02
    x[4,11]   findWorstP[4,1]  0.0633301423955965
    x[4,11]   findWorstP[4,2]  0.0633301423955965
    x[4,11]   findWorstP[4,3]  0.0633301423955965
    x[4,12]   allocateEach[12]  1
    x[4,12]   findWorstP[1,4]  -0.133962457687968
    x[4,12]   findWorstP[2,4]  -0.0712221687104064
    x[4,12]   findWorstP[3,4]  -2.4515143140474375e-02
    x[4,12]   findWorstP[4,1]  1.0058932631327032e-01
    x[4,12]   findWorstP[4,2]  1.0058932631327032e-01
    x[4,12]   findWorstP[4,3]  1.0058932631327032e-01
    x[4,13]   allocateEach[13]  1
    x[4,13]   findWorstP[1,4]  -0.0900165584748619
    x[4,13]   findWorstP[2,4]  -1.1117697180750565e-01
    x[4,13]   findWorstP[3,4]  -8.2486628842683665e-02
    x[4,13]   findWorstP[4,1]  1.4451956443699893e-01
    x[4,13]   findWorstP[4,2]  1.4451956443699893e-01
    x[4,13]   findWorstP[4,3]  1.4451956443699893e-01
    MARKER    'MARKER'                 'INTEND'
RHS
    RHS1      allocateEach[1]  1
    RHS1      allocateEach[2]  1
    RHS1      allocateEach[3]  1
    RHS1      allocateEach[4]  1
    RHS1      allocateEach[5]  1
    RHS1      allocateEach[6]  1
    RHS1      allocateEach[7]  1
    RHS1      allocateEach[8]  1
    RHS1      allocateEach[9]  1
    RHS1      allocateEach[10]  1
    RHS1      allocateEach[11]  1
    RHS1      allocateEach[12]  1
    RHS1      allocateEach[13]  1
    RHS1      allocateAllCash  1
BOUNDS
 UP BND1      z         1
 MI BND1      cashProportion[1]
 UP BND1      cashProportion[1]  1
 MI BND1      cashProportion[2]
 UP BND1      cashProportion[2]  1
 MI BND1      cashProportion[3]
 UP BND1      cashProportion[3]  1
 MI BND1      cashProportion[4]
 UP BND1      cashProportion[4]  1
 BV BND1      x[1,1]  
 BV BND1      x[1,2]  
 BV BND1      x[1,3]  
 BV BND1      x[1,4]  
 BV BND1      x[1,5]  
 BV BND1      x[1,6]  
 BV BND1      x[1,7]  
 BV BND1      x[1,8]  
 BV BND1      x[1,9]  
 BV BND1      x[1,10] 
 BV BND1      x[1,11] 
 BV BND1      x[1,12] 
 BV BND1      x[1,13] 
 BV BND1      x[2,1]  
 BV BND1      x[2,2]  
 BV BND1      x[2,3]  
 BV BND1      x[2,4]  
 BV BND1      x[2,5]  
 BV BND1      x[2,6]  
 BV BND1      x[2,7]  
 BV BND1      x[2,8]  
 BV BND1      x[2,9]  
 BV BND1      x[2,10] 
 BV BND1      x[2,11] 
 BV BND1      x[2,12] 
 BV BND1      x[2,13] 
 BV BND1      x[3,1]  
 BV BND1      x[3,2]  
 BV BND1      x[3,3]  
 BV BND1      x[3,4]  
 BV BND1      x[3,5]  
 BV BND1      x[3,6]  
 BV BND1      x[3,7]  
 BV BND1      x[3,8]  
 BV BND1      x[3,9]  
 BV BND1      x[3,10] 
 BV BND1      x[3,11] 
 BV BND1      x[3,12] 
 BV BND1      x[3,13] 
 BV BND1      x[4,1]  
 BV BND1      x[4,2]  
 BV BND1      x[4,3]  
 BV BND1      x[4,4]  
 BV BND1      x[4,5]  
 BV BND1      x[4,6]  
 BV BND1      x[4,7]  
 BV BND1      x[4,8]  
 BV BND1      x[4,9]  
 BV BND1      x[4,10] 
 BV BND1      x[4,11] 
 BV BND1      x[4,12] 
 BV BND1      x[4,13] 
ENDATA
